Grasp exp. instance_n_15_m_5_id_2.lp tipoLifted 0 szPool 1 nIteration 20 alpha 0.8 
Academic license - for non-commercial use only
Read LP format model from file ../input/instancesGenerated/instance_n_15_m_5_id_2.lp
Reading time = 0.00 seconds
: 5 rows, 15 columns, 75 nonzeros
Optimize a model with 5 rows, 15 columns and 75 nonzeros
Variable types: 0 continuous, 15 integer (15 binary)
Coefficient statistics:
  Matrix range     [1e+00, 1e+01]
  Objective range  [1e+00, 1e+01]
  Bounds range     [1e+00, 1e+00]
  RHS range        [4e+01, 5e+01]
Found heuristic solution: objective 36.0000000

Explored 0 nodes (0 simplex iterations) in 0.00 seconds
Thread count was 1 (of 8 available processors)

Solution count 1: 36 
No other solutions better than 0

Solution limit reached
Best objective 3.600000000000e+01, best bound -, gap -
C_1:	 6.00 x_1  = 1.000000 + 6.00 x_2  = 0.000000 + 1.00 x_3  = 0.000000 + 4.00 x_4  = 1.000000 + 5.00 x_5  = 0.101545 + 9.00 x_6  = 0.253863 + 9.00 x_7  = 0.112583 + 2.00 x_8  = 1.000000 + 4.00 x_9  = 0.000000 + 1.00 x_10  = 1.000000 + 6.00 x_11  = 1.000000 + 2.00 x_12  = 0.000000 + 7.00 x_13  = 1.000000 + 8.00 x_14  = 0.024283 + 9.00 x_15  = 1.000000 <= 39.00
C_2:	 4.00 x_1  = 1.000000 + 9.00 x_2  = 0.000000 + 2.00 x_3  = 0.000000 + 7.00 x_4  = 1.000000 + 8.00 x_5  = 0.101545 + 7.00 x_6  = 0.253863 + 3.00 x_7  = 0.112583 + 7.00 x_8  = 1.000000 + 7.00 x_9  = 0.000000 + 10.00 x_10  = 1.000000 + 6.00 x_11  = 1.000000 + 5.00 x_12  = 0.000000 + 2.00 x_13  = 1.000000 + 3.00 x_14  = 0.024283 + 1.00 x_15  = 1.000000 <= 40.00
C_3:	 8.00 x_1  = 1.000000 + 9.00 x_2  = 0.000000 + 8.00 x_3  = 0.000000 + 1.00 x_4  = 1.000000 + 4.00 x_5  = 0.101545 + 2.00 x_6  = 0.253863 + 9.00 x_7  = 0.112583 + 5.00 x_8  = 1.000000 + 5.00 x_9  = 0.000000 + 4.00 x_10  = 1.000000 + 5.00 x_11  = 1.000000 + 3.00 x_12  = 0.000000 + 5.00 x_13  = 1.000000 + 3.00 x_14  = 0.024283 + 10.00 x_15  = 1.000000 <= 40.00
C_4:	 6.00 x_1  = 1.000000 + 7.00 x_2  = 0.000000 + 8.00 x_3  = 0.000000 + 7.00 x_4  = 1.000000 + 3.00 x_5  = 0.101545 + 7.00 x_6  = 0.253863 + 6.00 x_7  = 0.112583 + 7.00 x_8  = 1.000000 + 5.00 x_9  = 0.000000 + 2.00 x_10  = 1.000000 + 9.00 x_11  = 1.000000 + 1.00 x_12  = 0.000000 + 7.00 x_13  = 1.000000 + 10.00 x_14  = 0.024283 + 3.00 x_15  = 1.000000 <= 44.00
C_5:	 9.00 x_1  = 1.000000 + 9.00 x_2  = 0.000000 + 3.00 x_3  = 0.000000 + 7.00 x_4  = 1.000000 + 9.00 x_5  = 0.101545 + 9.00 x_6  = 0.253863 + 10.00 x_7  = 0.112583 + 10.00 x_8  = 1.000000 + 3.00 x_9  = 0.000000 + 7.00 x_10  = 1.000000 + 3.00 x_11  = 1.000000 + 9.00 x_12  = 0.000000 + 9.00 x_13  = 1.000000 + 10.00 x_14  = 0.024283 + 1.00 x_15  = 1.000000 <= 54.00
Solution initial: 64.344371 
Number Constraints Used in Cover:5
GRASP Method!
Number cuts repeat: 0
value: 64.344371
Number Constraints Used in Cover:7
GRASP Method!
Number cuts repeat: 0
value: 64.344371
Number Constraints Used in Cover:9
GRASP Method!
Number cuts repeat: 0
value: 64.344371
Number Constraints Used in Cover:11
GRASP Method!
Number cuts repeat: 0
value: 64.344371
Number Constraints Used in Cover:13
GRASP Method!
Number cuts repeat: 0
value: 64.344371
Number Constraints Used in Cover:16
GRASP Method!
Number cuts repeat: 0
value: 64.344371
Number Constraints Used in Cover:18
GRASP Method!
Number cuts repeat: 0
value: 64.344371
Number Constraints Used in Cover:20
GRASP Method!
Number cuts repeat: 0
value: 64.344371
Number Constraints Used in Cover:23
GRASP Method!
Number cuts repeat: 0
value: 64.344371
Number Constraints Used in Cover:26
GRASP Method!
Number cuts repeat: 0
value: 64.344371
Number Constraints Used in Cover:29
GRASP Method!
Number cuts repeat: 0
value: 64.344371
Number Constraints Used in Cover:32
GRASP Method!
Number cuts repeat: 0
value: 64.344371
Number Constraints Used in Cover:34
GRASP Method!
Number cuts repeat: 0
value: 63.920306
Number Constraints Used in Cover:36
GRASP Method!
Number cuts repeat: 0
value: 63.920306
Number Constraints Used in Cover:38
GRASP Method!
Number cuts repeat: 0
value: 63.920306
Number Constraints Used in Cover:40
GRASP Method!
Number cuts repeat: 0
value: 63.920306
Number Constraints Used in Cover:43
GRASP Method!
Number cuts repeat: 0
value: 63.920306
Number Constraints Used in Cover:46
GRASP Method!
Number cuts repeat: 0
value: 63.920306
Number Constraints Used in Cover:48
GRASP Method!
Number cuts repeat: 0
value: 63.920306
Number Constraints Used in Cover:50
GRASP Method!
Number cuts repeat: 0
value: 63.920306
Number Constraints Used in Cover:53
GRASP Method!
Number cuts repeat: 0
value: 63.920306
Number Constraints Used in Cover:55
GRASP Method!
Number cuts repeat: 0
value: 63.920306
Number Constraints Used in Cover:57
GRASP Method!
Number cuts repeat: 0
value: 63.920306
Number Constraints Used in Cover:58
GRASP Method!
Number cuts repeat: 0
value: 63.920306
Number Constraints Used in Cover:60
GRASP Method!
Number cuts repeat: 0
value: 63.920306
Number Constraints Used in Cover:63
GRASP Method!
Number cuts repeat: 0
value: 63.920306
Number Constraints Used in Cover:65
GRASP Method!
Number cuts repeat: 0
value: 63.920306
Number Constraints Used in Cover:67
GRASP Method!
Number cuts repeat: 0
value: 63.920306
Number Constraints Used in Cover:69
GRASP Method!
Number cuts repeat: 0
value: 63.920306
Number Constraints Used in Cover:70
GRASP Method!
Number cuts repeat: 0
value: 63.920306
Number Constraints Used in Cover:74
GRASP Method!
Number cuts repeat: 0
value: 63.920306
Number Constraints Used in Cover:75
GRASP Method!
Number cuts repeat: 0
value: 63.920306
Number Constraints Used in Cover:78
GRASP Method!
Number cuts repeat: 0
value: 63.920306
Number Constraints Used in Cover:82
GRASP Method!
Number cuts repeat: 0
value: 63.920306
Number Constraints Used in Cover:85
GRASP Method!
Number cuts repeat: 0
value: 63.920306
Number Constraints Used in Cover:86
GRASP Method!
Number cuts repeat: 0
value: 63.920306
Number Constraints Used in Cover:88
GRASP Method!
Number cuts repeat: 0
value: 63.920306
Number Constraints Used in Cover:90
GRASP Method!
Number cuts repeat: 0
value: 63.920306
Number Constraints Used in Cover:91
GRASP Method!
Number cuts repeat: 0
value: 63.920306
Number Constraints Used in Cover:94
GRASP Method!
Number cuts repeat: 0
value: 63.920306
Number Constraints Used in Cover:97
GRASP Method!
Number cuts repeat: 0
value: 63.920306
Number Constraints Used in Cover:99
GRASP Method!
Number cuts repeat: 0
value: 63.920306
Number Constraints Used in Cover:101
GRASP Method!
Number cuts repeat: 0
value: 63.920306
Number Constraints Used in Cover:104
GRASP Method!
Number cuts repeat: 0
value: 63.920306
Number Constraints Used in Cover:104
GRASP Method!
Number cuts repeat: 0
value: 63.920306
Number Constraints Used in Cover:107
GRASP Method!
Number cuts repeat: 0
value: 63.920306
Number Constraints Used in Cover:110
GRASP Method!
Number cuts repeat: 0
value: 63.920306
Number Constraints Used in Cover:114
GRASP Method!
Number cuts repeat: 0
value: 63.920306
Number Constraints Used in Cover:115
GRASP Method!
Number cuts repeat: 0
value: 63.920306
Number Constraints Used in Cover:117
GRASP Method!
Number cuts repeat: 0
value: 63.920306
Number Constraints Used in Cover:120
GRASP Method!
Number cuts repeat: 0
value: 63.920306
Number Constraints Used in Cover:120
GRASP Method!
Number cuts repeat: 0
value: 63.920306
Number Constraints Used in Cover:122
GRASP Method!
Number cuts repeat: 0
value: 63.920306
Number Constraints Used in Cover:125
GRASP Method!
Number cuts repeat: 0
value: 63.920306
Number Constraints Used in Cover:126
GRASP Method!
Number cuts repeat: 0
value: 63.920306
Number Constraints Used in Cover:128
GRASP Method!
Number cuts repeat: 0
value: 63.920306
Number Constraints Used in Cover:130
GRASP Method!
Number cuts repeat: 0
value: 63.920306
Number Constraints Used in Cover:131
GRASP Method!
Number cuts repeat: 0
value: 63.920306
Number Constraints Used in Cover:134
GRASP Method!
Number cuts repeat: 0
value: 63.920306
Number Constraints Used in Cover:134
GRASP Method!
Number cuts repeat: 0
value: 63.920306
Number Constraints Used in Cover:136
GRASP Method!
Number cuts repeat: 0
value: 63.920306
Number Constraints Used in Cover:138
GRASP Method!
Number cuts repeat: 0
value: 63.920306
Number Constraints Used in Cover:139
GRASP Method!
Number cuts repeat: 0
value: 63.920306
Number Constraints Used in Cover:141
GRASP Method!
Number cuts repeat: 0
value: 63.920306
Number Constraints Used in Cover:144
GRASP Method!
Number cuts repeat: 0
value: 63.920306
Number Constraints Used in Cover:145
GRASP Method!
Number cuts repeat: 0
value: 63.920306
Number Constraints Used in Cover:147
GRASP Method!
Number cuts repeat: 0
value: 63.920306
Number Constraints Used in Cover:149
GRASP Method!
Number cuts repeat: 0
value: 63.920306
Number Constraints Used in Cover:150
GRASP Method!
Number cuts repeat: 0
value: 63.920306
Number Constraints Used in Cover:153
GRASP Method!
Number cuts repeat: 0
value: 63.920306
Number Constraints Used in Cover:154
GRASP Method!
Number cuts repeat: 0
value: 63.920306
Number Constraints Used in Cover:155
GRASP Method!
Number cuts repeat: 0
value: 63.920306
Number Constraints Used in Cover:157
GRASP Method!
Number cuts repeat: 0
value: 63.920306
Number Constraints Used in Cover:160
GRASP Method!
Number cuts repeat: 0
value: 63.920306
Number Constraints Used in Cover:162
GRASP Method!
Number cuts repeat: 0
value: 63.920306
Number Constraints Used in Cover:165
GRASP Method!
Number cuts repeat: 0
value: 63.920306
Number Constraints Used in Cover:167
GRASP Method!
Number cuts repeat: 0
value: 63.920306
Number Constraints Used in Cover:168
GRASP Method!
Number cuts repeat: 0
value: 63.920306
Number Constraints Used in Cover:171
GRASP Method!
Number cuts repeat: 0
value: 63.920306
Number Constraints Used in Cover:174
GRASP Method!
Number cuts repeat: 0
value: 63.920306
Number Constraints Used in Cover:174
GRASP Method!
Number cuts repeat: 0
value: 63.920306
Number Constraints Used in Cover:175
GRASP Method!
Number cuts repeat: 0
value: 63.920306
Number Constraints Used in Cover:178
GRASP Method!
Number cuts repeat: 0
value: 63.920306
Number Constraints Used in Cover:180
GRASP Method!
Number cuts repeat: 0
value: 63.920306
Number Constraints Used in Cover:180
GRASP Method!
Number cuts repeat: 0
value: 63.920306
Number Constraints Used in Cover:180
GRASP Method!
Number cuts repeat: 0
value: 63.920306
Number Constraints Used in Cover:180
GRASP Method!
Number cuts repeat: 0
value: 63.920306
Number Constraints Used in Cover:180
GRASP Method!
Number cuts repeat: 0
value: 63.920306
Number Constraints Used in Cover:180
GRASP Method!
Number cuts repeat: 0
value: 63.920306
Number Constraints Used in Cover:181
GRASP Method!
Number cuts repeat: 0
value: 63.920306
Number Constraints Used in Cover:182
GRASP Method!
Number cuts repeat: 0
value: 63.920306
Number Constraints Used in Cover:183
GRASP Method!
Number cuts repeat: 0
value: 63.920306
Number Constraints Used in Cover:183
GRASP Method!
Number cuts repeat: 0
value: 63.920306
Number Constraints Used in Cover:183
GRASP Method!
Number cuts repeat: 0
value: 63.920306
Number Constraints Used in Cover:185
GRASP Method!
Number cuts repeat: 0
value: 63.920306
Number Constraints Used in Cover:186
GRASP Method!
Number cuts repeat: 0
value: 63.920306
Number Constraints Used in Cover:186
GRASP Method!
Number cuts repeat: 0
value: 63.920306
Number Constraints Used in Cover:187
GRASP Method!
Number cuts repeat: 0
value: 63.920306
Number Constraints Used in Cover:188
GRASP Method!
Number cuts repeat: 0
value: 63.920306
Number Constraints Used in Cover:189
GRASP Method!
Number cuts repeat: 0
value: 63.920306
Number Constraints Used in Cover:191
GRASP Method!
Number cuts repeat: 0
value: 63.920306
Number Constraints Used in Cover:193
GRASP Method!
Number cuts repeat: 0
value: 63.920306
Number Constraints Used in Cover:194
GRASP Method!
Number cuts repeat: 0
value: 63.920306
Number Constraints Used in Cover:194
GRASP Method!
Number cuts repeat: 0
value: 63.920306
Number Constraints Used in Cover:194
GRASP Method!
Number cuts repeat: 0
value: 63.920306
Number Constraints Used in Cover:195
GRASP Method!
Number cuts repeat: 0
value: 63.920306
Number Constraints Used in Cover:196
GRASP Method!
Number cuts repeat: 0
value: 63.920306
Number Constraints Used in Cover:197
GRASP Method!
Number cuts repeat: 0
value: 63.920306
Number Constraints Used in Cover:197
GRASP Method!
Number cuts repeat: 0
value: 63.920306
Number Constraints Used in Cover:199
GRASP Method!
Number cuts repeat: 0
value: 63.920306
Number Constraints Used in Cover:200
GRASP Method!
Number cuts repeat: 0
value: 63.920306
Number Constraints Used in Cover:201
GRASP Method!
Number cuts repeat: 0
value: 63.920306
Number Constraints Used in Cover:201
GRASP Method!
Number cuts repeat: 0
value: 63.920306
Number Constraints Used in Cover:202
GRASP Method!
Number cuts repeat: 0
value: 63.920306
Number Constraints Used in Cover:203
GRASP Method!
Number cuts repeat: 0
value: 63.920306
Number Constraints Used in Cover:205
GRASP Method!
Number cuts repeat: 0
value: 63.920306
Number Constraints Used in Cover:206
GRASP Method!
Number cuts repeat: 0
value: 63.920306
Number Constraints Used in Cover:207
GRASP Method!
Number cuts repeat: 0
value: 63.789567
Number Constraints Used in Cover:208
GRASP Method!
Number cuts repeat: 0
value: 63.789567
Number Constraints Used in Cover:210
GRASP Method!
Number cuts repeat: 0
value: 63.789567
Number Constraints Used in Cover:214
GRASP Method!
Number cuts repeat: 0
value: 63.789567
Number Constraints Used in Cover:219
GRASP Method!
Number cuts repeat: 0
value: 63.789567
Number Constraints Used in Cover:223
GRASP Method!
Number cuts repeat: 0
value: 63.789567
Number Constraints Used in Cover:225
GRASP Method!
Number cuts repeat: 0
value: 63.789567
Number Constraints Used in Cover:227
GRASP Method!
Number cuts repeat: 0
value: 63.789567
Number Constraints Used in Cover:230
GRASP Method!
Number cuts repeat: 0
value: 63.789567
Number Constraints Used in Cover:232
GRASP Method!
Number cuts repeat: 0
value: 63.789567
Number Constraints Used in Cover:234
GRASP Method!
Number cuts repeat: 0
value: 63.789567
Number Constraints Used in Cover:239
GRASP Method!
Number cuts repeat: 0
value: 63.789567
Number Constraints Used in Cover:243
GRASP Method!
Number cuts repeat: 0
value: 63.789567
Number Constraints Used in Cover:249
GRASP Method!
Number cuts repeat: 0
value: 63.789567
Number Constraints Used in Cover:251
GRASP Method!
Number cuts repeat: 0
value: 63.789567
Number Constraints Used in Cover:254
GRASP Method!
Number cuts repeat: 0
value: 63.789567
Number Constraints Used in Cover:257
GRASP Method!
Number cuts repeat: 0
value: 63.789567
Number Constraints Used in Cover:260
GRASP Method!
Number cuts repeat: 0
value: 63.789567
Number Constraints Used in Cover:263
GRASP Method!
Number cuts repeat: 0
value: 63.789567
Number Constraints Used in Cover:265
GRASP Method!
Number cuts repeat: 0
value: 63.789567
Number Constraints Used in Cover:266
GRASP Method!
Number cuts repeat: 0
value: 63.789567
Number Constraints Used in Cover:268
GRASP Method!
Number cuts repeat: 0
value: 63.789567
Number Constraints Used in Cover:273
GRASP Method!
Number cuts repeat: 0
value: 63.789567
Number Constraints Used in Cover:274
GRASP Method!
Number cuts repeat: 0
value: 63.789567
Number Constraints Used in Cover:275
GRASP Method!
Number cuts repeat: 0
value: 63.789567
Number Constraints Used in Cover:278
GRASP Method!
Number cuts repeat: 0
value: 63.789567
Number Constraints Used in Cover:279
GRASP Method!
Number cuts repeat: 0
value: 63.789567
Number Constraints Used in Cover:281
GRASP Method!
Number cuts repeat: 0
value: 63.789567
Number Constraints Used in Cover:283
GRASP Method!
Number cuts repeat: 0
value: 63.789567
Number Constraints Used in Cover:285
GRASP Method!
Number cuts repeat: 0
value: 63.789567
Number Constraints Used in Cover:288
GRASP Method!
Number cuts repeat: 0
value: 63.789567
Number Constraints Used in Cover:292
GRASP Method!
Number cuts repeat: 0
value: 63.789567
Number Constraints Used in Cover:292
GRASP Method!
Number cuts repeat: 0
value: 63.789567
Number Constraints Used in Cover:294
GRASP Method!
Number cuts repeat: 0
value: 63.789567
Number Constraints Used in Cover:297
GRASP Method!
Number cuts repeat: 0
value: 63.789567
Number Constraints Used in Cover:299
GRASP Method!
Number cuts repeat: 0
value: 63.789567
Number Constraints Used in Cover:301
GRASP Method!
Number cuts repeat: 0
value: 63.789567
Number Constraints Used in Cover:304
GRASP Method!
Number cuts repeat: 0
value: 63.789567
Number Constraints Used in Cover:305
GRASP Method!
Number cuts repeat: 0
value: 63.789567
Number Constraints Used in Cover:307
GRASP Method!
Number cuts repeat: 0
value: 63.789567
Number Constraints Used in Cover:309
GRASP Method!
Number cuts repeat: 0
value: 63.789567
Number Constraints Used in Cover:310
GRASP Method!
Number cuts repeat: 0
value: 63.789567
Number Constraints Used in Cover:312
GRASP Method!
Number cuts repeat: 0
value: 63.789567
Number Constraints Used in Cover:313
GRASP Method!
Number cuts repeat: 0
value: 63.789567
Number Constraints Used in Cover:314
GRASP Method!
Number cuts repeat: 0
value: 63.789567
Number Constraints Used in Cover:315
GRASP Method!
Number cuts repeat: 0
value: 63.789567
Number Constraints Used in Cover:318
GRASP Method!
Number cuts repeat: 0
value: 63.789567
Number Constraints Used in Cover:321
GRASP Method!
Number cuts repeat: 0
value: 63.789567
Number Constraints Used in Cover:323
GRASP Method!
Number cuts repeat: 0
value: 63.789567
Number Constraints Used in Cover:326
GRASP Method!
Number cuts repeat: 0
value: 63.789567
Number Constraints Used in Cover:327
GRASP Method!
Number cuts repeat: 0
value: 63.789567
Number Constraints Used in Cover:328
GRASP Method!
Number cuts repeat: 0
value: 63.789567
Number Constraints Used in Cover:330
GRASP Method!
Number cuts repeat: 0
value: 63.789567
Number Constraints Used in Cover:332
GRASP Method!
Number cuts repeat: 0
value: 63.789567
Number Constraints Used in Cover:334
GRASP Method!
Number cuts repeat: 0
value: 63.789567
Number Constraints Used in Cover:335
GRASP Method!
Number cuts repeat: 0
value: 63.789567
Number Constraints Used in Cover:336
GRASP Method!
Number cuts repeat: 0
value: 63.789567
Number Constraints Used in Cover:337
GRASP Method!
Number cuts repeat: 0
value: 63.789567
Number Constraints Used in Cover:341
GRASP Method!
Number cuts repeat: 0
value: 63.789567
Number Constraints Used in Cover:344
GRASP Method!
Number cuts repeat: 0
value: 63.789567
Number Constraints Used in Cover:345
GRASP Method!
Number cuts repeat: 0
value: 63.789567
Number Constraints Used in Cover:348
GRASP Method!
Number cuts repeat: 0
value: 63.789567
Number Constraints Used in Cover:352
GRASP Method!
Number cuts repeat: 0
value: 63.789567
Number Constraints Used in Cover:355
GRASP Method!
Number cuts repeat: 0
value: 63.789567
Number Constraints Used in Cover:358
GRASP Method!
Number cuts repeat: 0
value: 63.789567
Number Constraints Used in Cover:359
GRASP Method!
Number cuts repeat: 0
value: 63.789567
Number Constraints Used in Cover:360
GRASP Method!
Number cuts repeat: 0
value: 63.789567
Number Constraints Used in Cover:362
GRASP Method!
Number cuts repeat: 0
value: 63.789567
Number Constraints Used in Cover:365
GRASP Method!
Number cuts repeat: 0
value: 63.789567
Number Constraints Used in Cover:370
GRASP Method!
Number cuts repeat: 0
value: 63.789567
Number Constraints Used in Cover:372
GRASP Method!
Number cuts repeat: 0
value: 63.789567
Number Constraints Used in Cover:373
GRASP Method!
Number cuts repeat: 0
value: 63.789567
Number Constraints Used in Cover:376
GRASP Method!
Number cuts repeat: 0
value: 63.789567
Number Constraints Used in Cover:380
GRASP Method!
Number cuts repeat: 0
value: 63.789567
Number Constraints Used in Cover:384
GRASP Method!
Number cuts repeat: 0
value: 63.789567
Number Constraints Used in Cover:385
GRASP Method!
Number cuts repeat: 0
value: 63.789567
Number Constraints Used in Cover:388
GRASP Method!
Number cuts repeat: 0
value: 63.789567
Number Constraints Used in Cover:392
GRASP Method!
Number cuts repeat: 0
value: 63.789567
Number Constraints Used in Cover:394
GRASP Method!
Number cuts repeat: 0
value: 63.789567
Number Constraints Used in Cover:397
GRASP Method!
Number cuts repeat: 0
value: 63.789567
Number Constraints Used in Cover:403
GRASP Method!
Number cuts repeat: 0
value: 63.789567
Number Constraints Used in Cover:406
GRASP Method!
Number cuts repeat: 0
value: 63.789567
Number Constraints Used in Cover:409
GRASP Method!
Number cuts repeat: 0
value: 63.789567
Number Constraints Used in Cover:413
GRASP Method!
Number cuts repeat: 0
value: 63.789567
Number Constraints Used in Cover:416
GRASP Method!
Number cuts repeat: 0
value: 63.789567
Number Constraints Used in Cover:417
GRASP Method!
Number cuts repeat: 0
value: 63.789567
Number Constraints Used in Cover:421
GRASP Method!
Number cuts repeat: 0
value: 63.789567
Number Constraints Used in Cover:421
GRASP Method!
Number cuts repeat: 0
value: 63.789567
Number Constraints Used in Cover:423
GRASP Method!
Number cuts repeat: 0
value: 63.789567
Number Constraints Used in Cover:425
GRASP Method!
Number cuts repeat: 0
value: 63.789567
Number Constraints Used in Cover:427
GRASP Method!
Number cuts repeat: 0
value: 63.789567
Number Constraints Used in Cover:432
GRASP Method!
Number cuts repeat: 0
value: 63.789567
Number Constraints Used in Cover:434
GRASP Method!
Number cuts repeat: 0
value: 63.789567
Number Constraints Used in Cover:436
GRASP Method!
Number cuts repeat: 0
value: 63.789567
Number Constraints Used in Cover:437
GRASP Method!
Number cuts repeat: 0
value: 63.789567
Number Constraints Used in Cover:439
GRASP Method!
Number cuts repeat: 0
value: 63.789567
Number Constraints Used in Cover:441
GRASP Method!
Number cuts repeat: 0
value: 63.789567
Number Constraints Used in Cover:444
GRASP Method!
Number cuts repeat: 0
value: 63.789567
Number Constraints Used in Cover:447
GRASP Method!
Number cuts repeat: 0
value: 63.789567
Number Constraints Used in Cover:450
GRASP Method!
Number cuts repeat: 0
value: 63.789567
Number Constraints Used in Cover:453
GRASP Method!
Number cuts repeat: 0
value: 63.789567
Number Constraints Used in Cover:455
GRASP Method!
Number cuts repeat: 0
value: 63.789567
Number Constraints Used in Cover:457
GRASP Method!
Number cuts repeat: 0
value: 63.789567
Number Constraints Used in Cover:458
GRASP Method!
Number cuts repeat: 0
value: 63.789567
Number Constraints Used in Cover:459
GRASP Method!
Number cuts repeat: 0
value: 63.789567
Number Constraints Used in Cover:462
GRASP Method!
Number cuts repeat: 0
value: 63.789567
Number Constraints Used in Cover:467
GRASP Method!
Number cuts repeat: 0
value: 63.789567
Number Constraints Used in Cover:469
GRASP Method!
Number cuts repeat: 0
value: 63.789567
Number Constraints Used in Cover:472
GRASP Method!
Number cuts repeat: 0
value: 63.789567
Number Constraints Used in Cover:476
GRASP Method!
Number cuts repeat: 0
value: 63.789567
Number Constraints Used in Cover:478
GRASP Method!
Number cuts repeat: 0
value: 63.789567
Number Constraints Used in Cover:479
GRASP Method!
Number cuts repeat: 0
value: 63.789567
Number Constraints Used in Cover:480
GRASP Method!
Number cuts repeat: 0
value: 63.789567
Number Constraints Used in Cover:482
GRASP Method!
Number cuts repeat: 0
value: 63.789567
Number Constraints Used in Cover:486
GRASP Method!
Number cuts repeat: 0
value: 63.789567
Number Constraints Used in Cover:487
GRASP Method!
Number cuts repeat: 0
value: 63.789567
Number Constraints Used in Cover:488
GRASP Method!
Number cuts repeat: 0
value: 63.789567
Number Constraints Used in Cover:491
GRASP Method!
Number cuts repeat: 0
value: 63.789567
Number Constraints Used in Cover:495
GRASP Method!
Number cuts repeat: 0
value: 63.789567
Number Constraints Used in Cover:497
GRASP Method!
Number cuts repeat: 0
value: 63.789567
Number Constraints Used in Cover:501
GRASP Method!
Number cuts repeat: 0
value: 63.789567
Number Constraints Used in Cover:503
GRASP Method!
Number cuts repeat: 0
value: 63.789567
Number Constraints Used in Cover:505
GRASP Method!
Number cuts repeat: 0
value: 63.789567
Number Constraints Used in Cover:507
GRASP Method!
Number cuts repeat: 0
value: 63.789567
Number Constraints Used in Cover:508
GRASP Method!
Number cuts repeat: 0
value: 63.789567
Number Constraints Used in Cover:509
GRASP Method!
Number cuts repeat: 0
value: 63.789567
Number Constraints Used in Cover:511
GRASP Method!
Number cuts repeat: 0
value: 63.789567
Number Constraints Used in Cover:512
GRASP Method!
Number cuts repeat: 0
value: 63.789567
Number Constraints Used in Cover:515
GRASP Method!
Number cuts repeat: 0
value: 63.789567
Number Constraints Used in Cover:516
GRASP Method!
Number cuts repeat: 0
value: 63.789567
Number Constraints Used in Cover:518
GRASP Method!
Number cuts repeat: 0
value: 63.789567
Number Constraints Used in Cover:520
GRASP Method!
Number cuts repeat: 0
value: 63.789567
Number Constraints Used in Cover:521
GRASP Method!
Number cuts repeat: 0
value: 63.789567
Number Constraints Used in Cover:525
GRASP Method!
Number cuts repeat: 0
value: 63.789567
Number Constraints Used in Cover:528
GRASP Method!
Number cuts repeat: 0
value: 63.789567
Number Constraints Used in Cover:531
GRASP Method!
Number cuts repeat: 0
value: 63.789567
Number Constraints Used in Cover:534
GRASP Method!
Number cuts repeat: 0
value: 63.789567
Number Constraints Used in Cover:537
GRASP Method!
Number cuts repeat: 0
value: 63.789567
Number Constraints Used in Cover:539
GRASP Method!
Number cuts repeat: 0
value: 63.789567
Number Cuts Final: 538
